proyfinal/src/viki/013/experimentInOfficeAgust.take6.output/e79fcb0a-2e1b-4312-98c6-2db5079426bf.als.out
Reading from standard input... Use '--help' for help.
============================[ Problem Statistics ]=============================
|                                                                             |
|  Number of variables:         87638                                         |
|  Number of clauses:          161767                                         |
|  Parse time:                   0.04 s                                       |
|                                                                             |
============================[ Search Statistics ]==============================
| Conflicts |          ORIGINAL         |          LEARNT          | Progress |
|           |    Vars  Clauses Literals |    Limit  Clauses Lit/Cl |          |
===============================================================================
|       100 |   63094   107777   269455 |    39518       99     52 | 28.006 % |
|       250 |   63094   107733   269365 |    43470      249     62 | 28.006 % |
|       475 |   63094   107733   269365 |    47817      474     64 | 28.006 % |
|       812 |   49776    70148   176796 |    52598      803     53 | 43.203 % |
|      1318 |   49724    70089   176652 |    57858     1305     50 | 43.262 % |
|      2077 |   49705    69830   176035 |    63644     2063     51 | 43.284 % |
|      3216 |   49694    69767   175907 |    70008     3198     59 | 43.296 % |
|      4924 |   49021    67156   169596 |    77009     4881     64 | 44.064 % |
|      7486 |   48339    64175   162541 |    84710     6179     60 | 44.842 % |
===============================================================================
restarts              : 45
conflicts             : 10304          (7001 /sec)
decisions             : 32294          (0.00 % random) (21942 /sec)
propagations          : 16172581       (10988502 /sec)
conflict literals     : 549638         (41.93 % deleted)
Memory used           : 30.28 MB
CPU time              : 1.47177 s

UNSATISFIABLE
